\ This file has been generated by DOcplex
\ ENCODING=ISO-8859-1
\Problem name: random_problem.lp

Minimize
 obj: 10 x2 - x3 + x4 + 9 x5 - 10 x6 - x7 - x8 + 8 x9 + 9 x10 - 10 x11 + 3 x13
      + 10 x14 + 5 x15 - 3 x16 + x17 - 8 x18 + 6 x19 + 5 x20 + 10 x21 + 7 x22
      + 5 x23 - 9 x24 - 3 x25 + 9 x26 + x27 - 7 x28 - 3 x29 - x30 + 10 x31
      - 3 x32 + 9 x33 - 3 x34 - 9 x35 + 3 x36 - 6 x37 + 4 x38 - 4 x39 + [
      - 2 x0*x5 - 10 x0*x12 - 12 x0*x16 + 10 x0*x23 - 6 x0*x24 + 2 x0*x29
      - 18 x0*x30 + 10 x0*x33 + 16 x0*x35 + 14 x0*x36 + 12 x1*x7 + 2 x1*x13
      + 18 x1*x17 - 12 x1*x18 - 16 x1*x21 - 6 x1*x23 + 8 x1*x25 + 2 x1*x31
      - 12 x1*x34 - 2 x1*x37 + 2 x2*x4 + 20 x2*x8 - 14 x2*x12 + 2 x2*x13
      - 10 x2*x18 + 4 x2*x21 - 14 x2*x22 - 14 x2*x27 + 18 x2*x32 + 6 x2*x33
      + 16 x3*x4 - 20 x3*x7 + 14 x3*x8 - 6 x3*x13 + 4 x3*x15 + 16 x3*x18
      - 8 x3*x23 + 2 x3*x25 + 10 x3*x35 - 4 x3*x36 - 10 x4*x12 + 6 x4*x14
      + 16 x4*x20 - 10 x4*x28 - 12 x4*x32 - 12 x4*x36 - 2 x4*x37 + 4 x4*x39
      + 6 x5*x7 - 12 x5*x11 - 8 x5*x14 + 10 x5*x17 - 6 x5*x22 - 4 x5*x24
      + 16 x5*x30 - 16 x5*x32 + 20 x5*x36 - 16 x6*x7 + 20 x6*x9 - 8 x6*x10
      + 16 x6*x12 - 10 x6*x22 - 16 x6*x23 + 8 x6*x25 - 12 x6*x29 - 20 x6*x36
      - 2 x6*x39 - 10 x7*x10 - 10 x7*x16 - 12 x7*x19 - 6 x7*x20 + 12 x7*x30
      - 20 x7*x36 - 18 x8*x11 + 14 x8*x13 + 6 x8*x18 - 20 x8*x19 - 12 x8*x22
      - 6 x8*x25 + 6 x8*x34 - 10 x8*x39 + 14 x9*x10 - 14 x9*x13 + 16 x9*x15
      + 10 x9*x17 + 16 x9*x18 + 14 x9*x19 - 8 x9*x20 + 8 x9*x27 - 16 x9*x32
      - 2 x10*x14 - 10 x10*x16 + 10 x10*x18 - 18 x10*x21 - 18 x10*x27
      - 6 x10*x29 + 2 x10*x35 + 12 x11*x12 + 4 x11*x14 - 12 x11*x24 + 20 x11*x30
      - 4 x11*x33 - 4 x11*x37 + 16 x11*x38 - 4 x11*x39 + 10 x12*x22 - 14 x12*x24
      + 8 x12*x28 + 20 x12*x35 - 16 x12*x38 - 10 x13*x16 - 4 x13*x22 - 8 x13*x24
      - 12 x13*x29 - 2 x13*x39 + 18 x14*x16 - 20 x14*x20 + 2 x14*x22 + 6 x14*x28
      - 12 x14*x29 + 14 x14*x34 + 12 x15*x19 + 8 x15*x20 + 12 x15*x21
      + 16 x15*x26 + 2 x15*x27 - 14 x15*x30 + 6 x15*x34 + 8 x15*x39 - 18 x16*x17
      - 20 x16*x21 - 14 x16*x28 + 20 x16*x30 - 16 x16*x31 + 16 x17*x19
      + 10 x17*x20 + 18 x17*x31 - 18 x17*x33 + 20 x17*x37 + 10 x17*x38
      + 10 x18*x24 - 6 x18*x32 + 12 x18*x34 - 18 x18*x35 + 16 x19*x23
      + 12 x19*x26 + 20 x19*x27 - 8 x19*x33 + 12 x19*x35 + 10 x20*x23
      - 20 x20*x30 + 6 x20*x35 + 16 x20*x36 + 4 x21*x29 - 18 x21*x34 + 4 x21*x35
      + 16 x21*x37 + 18 x21*x38 + 20 x22*x26 + 14 x22*x29 - 20 x22*x31
      - 14 x23*x27 - 4 x23*x28 - 6 x23*x32 + 8 x23*x35 + 4 x24*x28 + 10 x24*x31
      + 6 x24*x37 - 20 x24*x38 + 6 x25*x26 - 20 x25*x29 - 8 x25*x30 - 16 x25*x32
      - 16 x25*x33 - 2 x25*x39 + 8 x26*x27 - 4 x26*x28 + 6 x26*x33 - 18 x26*x34
      - 12 x26*x36 + 16 x26*x38 - 12 x27*x28 - 6 x27*x31 - 2 x27*x39 - 2 x28*x32
      + 18 x28*x37 + 4 x29*x38 + 20 x29*x39 - 14 x30*x37 + 16 x30*x38
      - 16 x31*x32 + 16 x31*x34 - 20 x31*x36 + 10 x31*x37 - 2 x32*x38
      + 20 x33*x34 - 16 x33*x37 + 12 x33*x38 - 20 x34*x39 + 14 x35*x36 ]/2
Subject To
 c0: - 2 x2 + 2 x4 + x10 + x13 + 2 x17 - 2 x18 - x24 + 2 x28 - 2 x31 + 2 x34 = 
     0
 c1: - x1 - 2 x5 - x7 + 2 x11 + 2 x18 + x21 - 2 x22 - 2 x25 - x27 + x37 = 1
 c2: - x10 - x11 - 2 x15 + 2 x17 - 2 x23 - x26 - 2 x32 - x33 + 2 x38 - x39 = -1
 c3: - 2 x0 + x8 + 2 x14 + x17 - x18 - 2 x19 + x26 + 2 x27 + 2 x30 - x31 = 0
 c4: - 2 x2 - 2 x4 + x9 - 2 x15 + x18 - x20 + 2 x21 + x23 - x32 + 2 x38 = 0
 c5: - x14 - 2 x20 + 2 x21 + x22 + x25 + x26 + x28 - 2 x33 - x37 - x39 = -1
 c6: - 2 x1 - 2 x4 + x5 - x7 + 2 x18 + x21 + 2 x25 + x31 - x37 - x38 = -2
 c7: - x2 + x4 + x16 + x17 - 2 x18 + 2 x27 + 2 x28 - x32 - x35 + x36 = 0

Bounds
 0 <= x0 <= 1
 0 <= x1 <= 1
 0 <= x2 <= 1
 0 <= x3 <= 1
 0 <= x4 <= 1
 0 <= x5 <= 1
 0 <= x6 <= 1
 0 <= x7 <= 1
 0 <= x8 <= 1
 0 <= x9 <= 1
 0 <= x10 <= 1
 0 <= x11 <= 1
 0 <= x12 <= 1
 0 <= x13 <= 1
 0 <= x14 <= 1
 0 <= x15 <= 1
 0 <= x16 <= 1
 0 <= x17 <= 1
 0 <= x18 <= 1
 0 <= x19 <= 1
 0 <= x20 <= 1
 0 <= x21 <= 1
 0 <= x22 <= 1
 0 <= x23 <= 1
 0 <= x24 <= 1
 0 <= x25 <= 1
 0 <= x26 <= 1
 0 <= x27 <= 1
 0 <= x28 <= 1
 0 <= x29 <= 1
 0 <= x30 <= 1
 0 <= x31 <= 1
 0 <= x32 <= 1
 0 <= x33 <= 1
 0 <= x34 <= 1
 0 <= x35 <= 1
 0 <= x36 <= 1
 0 <= x37 <= 1
 0 <= x38 <= 1
 0 <= x39 <= 1

Binaries
 x0 x1 x2 x3 x4 x5 x6 x7 x8 x9 x10 x11 x12 x13 x14 x15 x16 x17 x18 x19 x20 x21
 x22 x23 x24 x25 x26 x27 x28 x29 x30 x31 x32 x33 x34 x35 x36 x37 x38 x39
End
